src/LKH/IO/anjos-60-03.tour
NAME : anjos-60-03.-135.tour
COMMENT : Length = -135
COMMENT : Found by LKH [Keld Helsgaun] Sun Apr 13 17:05:00 2025
TYPE : TOUR
DIMENSION : 60
TOUR_SECTION
1
47
6
5
48
40
30
52
56
50
41
9
36
26
42
38
29
2
16
13
57
7
4
37
11
12
3
59
19
24
20
44
21
8
58
33
46
17
25
45
28
14
10
18
55
32
39
35
15
43
60
22
27
34
54
31
51
23
49
53
-1
EOF
